************************************************************************
file with basedata            : n/a
initial value random generator: n/a
************************************************************************
projects                      :  1
jobs (incl. supersource/sink ):  32
horizon                       :  197
RESOURCES
  - renewable                 :  4   R
  - nonrenewable              :  0   N
  - doubly constrained        :  0   D
************************************************************************
PROJECT INFORMATION:
pronr.  #jobs rel.date duedate tardcost  MPM-Time
    1     30      0       57       22       57
************************************************************************
PRECEDENCE RELATIONS:
jobnr.    #modes  #successors   successors
   1        1          3           2   3   4
   2        1          3          21  26  27
   3        1          3           5   9  10
   4        1          3           6  12  13
   5        1          3           7   8  11
   6        1          3          15  18  19
   7        1          1          17
   8        1          3          12  13  14
   9        1          1          30
  10        1          3          23  24  28
  11        1          2          22  29
  12        1          1          21
  13        1          2          15  16
  14        1          3          17  20  25
  15        1          1          23
  16        1          2          18  21
  17        1          1          23
  18        1          3          24  27  30
  19        1          2          20  28
  20        1          1          22
  21        1          2          24  29
  22        1          2          26  30
  23        1          1          31
  24        1          1          31
  25        1          2          26  27
  26        1          1          31
  27        1          1          28
  28        1          1          29
  29        1          1          32
  30        1          1          32
  31        1          1          32
  32        1          0        
************************************************************************
REQUESTS/DURATIONS:
jobnr. mode duration  R 1  R 2  R 3  R 4
------------------------------------------------------------------------
  1      1     0    
  2      1     5       3   6   6   6   3
                       2   3   3   3   2
                       3   5   5   5   3
                       3   5   5   5   3
  3      1     9       9   9   9   9   9   9   9   9   9
                      10  10  10  10  10  10  10  10  10
                      10  10  10  10  10  10  10  10  10
                       9   9   9   9   9   9   9   9   9
  4      1     9       4   8   8   8   8   8   8   8   8
                       5  10  10  10  10  10  10  10  10
                       1   2   2   2   2   2   2   2   2
                       5   9   9   9   9   9   9   9   9
  5      1     1       6
                       4
                       1
                       4
  6      1     6       4   2   2   4   4   4
                       2   1   1   2   2   2
                       5   3   3   5   5   5
                      10   5   5  10  10  10
  7      1     7      10  10  10  10  10  10  10
                       3   3   3   3   3   3   3
                       1   1   1   1   1   1   1
                       5   5   5   5   5   5   5
  8      1     8       6   3   6   6   6   6   6   3
                       1   1   1   1   1   1   1   1
                      10   5  10  10  10  10  10   5
                       3   2   3   3   3   3   3   2
  9      1     9       3   6   6   6   6   6   6   6   6
                       4   8   8   8   8   8   8   8   8
                       1   1   1   1   1   1   1   1   1
                       3   6   6   6   6   6   6   6   6
 10      1     5       9   9   9   9   9
                       2   2   2   2   2
                       9   9   9   9   9
                       3   3   3   3   3
 11      1    10       3   3   3   3   3   3   3   3   3   3
                       8   8   8   8   8   8   8   8   8   8
                       4   4   4   4   4   4   4   4   4   4
                      10  10  10  10  10  10  10  10  10  10
 12      1     2       4   4
                       5   5
                       1   1
                       2   2
 13      1     3       7   7   7
                       1   1   1
                       3   3   3
                       6   6   6
 14      1     9      10  10   5  10  10  10  10  10  10
                       8   8   4   8   8   8   8   8   8
                       3   3   2   3   3   3   3   3   3
                       4   4   2   4   4   4   4   4   4
 15      1     6      10  10  10  10   5  10
                       2   2   2   2   1   2
                       6   6   6   6   3   6
                       2   2   2   2   1   2
 16      1     2       3   3
                       1   1
                       8   8
                       6   6
 17      1     3      10  10  10
                       7   7   7
                       2   2   2
                       2   2   2
 18      1     9       4   4   4   4   4   4   4   4   4
                       3   3   3   3   3   3   3   3   3
                       6   6   6   6   6   6   6   6   6
                       2   2   2   2   2   2   2   2   2
 19      1     8       6   6   6   6   6   6   6   6
                      10  10  10  10  10  10  10  10
                       5   5   5   5   5   5   5   5
                       5   5   5   5   5   5   5   5
 20      1     7       8   4   8   8   8   8   8
                       8   4   8   8   8   8   8
                       8   4   8   8   8   8   8
                       2   1   2   2   2   2   2
 21      1     9       5   5   5   3   5   5   3   5   3
                      10  10  10   5  10  10   5  10   5
                       9   9   9   5   9   9   5   9   5
                       4   4   4   2   4   4   2   4   2
 22      1     7       1   1   1   1   1   1   1
                       5  10  10  10  10   5  10
                       4   7   7   7   7   4   7
                       3   5   5   5   5   3   5
 23      1     1       5
                       7
                       1
                       1
 24      1    10       3   3   3   3   3   3   3   3   3   3
                      10  10  10  10  10  10  10  10  10  10
                       2   2   2   2   2   2   2   2   2   2
                       5   5   5   5   5   5   5   5   5   5
 25      1     9       1   1   1   1   1   1   1   1   1
                       1   1   1   1   1   1   1   1   1
                       1   1   1   1   1   1   1   1   1
                       6   6   6   6   6   6   6   3   6
 26      1     7       4   4   4   4   4   4   4
                       6   6   6   6   6   6   6
                       2   2   2   2   2   2   2
                       6   6   6   6   6   6   6
 27      1     9       8   8   8   4   8   8   8   8   8
                      10  10  10   5  10  10  10  10  10
                      10  10  10   5  10  10  10  10  10
                       9   9   9   5   9   9   9   9   9
 28      1     4      10  10  10  10
                      10  10  10  10
                       8   8   8   8
                       2   2   2   2
 29      1     4       2   1   2   2
                       3   2   3   3
                       1   1   1   1
                       3   2   3   3
 30      1    10       6   6   6   6   6   6   6   6   6   6
                       9   9   9   9   9   9   9   9   9   9
                       2   2   2   2   2   2   2   2   2   2
                       1   1   1   1   1   1   1   1   1   1
 31      1     9      10  10  10  10  10  10  10  10  10
                       2   2   2   2   2   2   2   2   2
                       1   1   1   1   1   1   1   1   1
                       2   2   2   2   2   2   2   2   2
 32      1     0    
************************************************************************
RESOURCEAVAILABILITIES:
  R 1  R 2  R 3  R 4

  38  38  38  19  19  38  38  38  38  38  38  38  38  38  38  38  38  38  38  38  38  38  38  38  38  38  38  38  38  38  38  19  38  38  38  38  38  38  19  38  38  38  38  38  38  38  38  38  38  38  38  38  38  38  38  38  38  38  38  38  38  38  38  38  38  38  38  38  38  38  38  38  38  38  38  38  19  38  38  38  38  19  38  38  38  38  38  19  38  38  38  19  38  38  38  38  38  38  38  38  38  38  38  38  19  38  38  38  38  38  38  38  38  38  38  38  38  38  38  38  38  38  38  38  38  38  38  38  38  38  38  38  38  38  38  38  38  38  38  19  38  38  38  38  38  38  38  38  38  38  38  38  38  38  38  38  19  38  19  19  38  38  38  38  38  38  38  38  38  38  19  38  38  38  38  38  19  38  19  38  38  38  38  38  38  38  38  38  38  38  38  38  19  38  38  38  38

  35  35  35  18  18  35  35  35  35  35  35  35  35  35  35  35  35  35  35  35  35  35  35  35  35  35  35  35  35  35  35  18  35  35  35  35  35  35  18  35  35  35  35  35  35  35  35  35  35  35  35  35  35  35  35  35  35  35  35  35  35  35  35  35  35  35  35  35  35  35  35  35  35  35  35  35  18  35  35  35  35  18  35  35  35  35  35  18  35  35  35  18  35  35  35  35  35  35  35  35  35  35  35  35  18  35  35  35  35  35  35  35  35  35  35  35  35  35  35  35  35  35  35  35  35  35  35  35  35  35  35  35  35  35  35  35  35  35  35  18  35  35  35  35  35  35  35  35  35  35  35  35  35  35  35  35  18  35  18  18  35  35  35  35  35  35  35  35  35  35  18  35  35  35  35  35  18  35  18  35  35  35  35  35  35  35  35  35  35  35  35  35  18  35  35  35  35

  30  30  30  15  15  30  30  30  30  30  30  30  30  30  30  30  30  30  30  30  30  30  30  30  30  30  30  30  30  30  30  15  30  30  30  30  30  30  15  30  30  30  30  30  30  30  30  30  30  30  30  30  30  30  30  30  30  30  30  30  30  30  30  30  30  30  30  30  30  30  30  30  30  30  30  30  15  30  30  30  30  15  30  30  30  30  30  15  30  30  30  15  30  30  30  30  30  30  30  30  30  30  30  30  15  30  30  30  30  30  30  30  30  30  30  30  30  30  30  30  30  30  30  30  30  30  30  30  30  30  30  30  30  30  30  30  30  30  30  15  30  30  30  30  30  30  30  30  30  30  30  30  30  30  30  30  15  30  15  15  30  30  30  30  30  30  30  30  30  30  15  30  30  30  30  30  15  30  15  30  30  30  30  30  30  30  30  30  30  30  30  30  15  30  30  30  30

  37  37  37  19  19  37  37  37  37  37  37  37  37  37  37  37  37  37  37  37  37  37  37  37  37  37  37  37  37  37  37  19  37  37  37  37  37  37  19  37  37  37  37  37  37  37  37  37  37  37  37  37  37  37  37  37  37  37  37  37  37  37  37  37  37  37  37  37  37  37  37  37  37  37  37  37  19  37  37  37  37  19  37  37  37  37  37  19  37  37  37  19  37  37  37  37  37  37  37  37  37  37  37  37  19  37  37  37  37  37  37  37  37  37  37  37  37  37  37  37  37  37  37  37  37  37  37  37  37  37  37  37  37  37  37  37  37  37  37  19  37  37  37  37  37  37  37  37  37  37  37  37  37  37  37  37  19  37  19  19  37  37  37  37  37  37  37  37  37  37  19  37  37  37  37  37  19  37  19  37  37  37  37  37  37  37  37  37  37  37  37  37  19  37  37  37  37

************************************************************************
